<number of tasks>
25

<cycle time>
14

<task times>
1 4
2 3
3 9
4 5
5 9
6 4
7 8
8 7
9 5
10 1
11 3
12 1
13 5
14 3
15 5
16 3
17 13
18 5
19 2
20 3
21 7
22 5
23 3
24 8
25 4

<precedence relations>
1,3
2,3
3,4
4,5
4,8
5,6
6,7
6,10
7,11
7,12
8,9
8,11
9,10
9,13
11,13
12,15
13,14
14,16
14,19
14,20
15,17
15,22
16,18
17,18
17,23
18,25
19,22
20,21
20,25
21,22
21,24
23,25

<setup times forward>
1,3:1
2,3:1
4,5:1
5,8:1
5,9:1
6,7:1
6,8:1
6,9:1
6,10:1
7,11:1
8,5:1
8,6:1
8,11:1
8,17:1
9,5:1
9,6:1
9,11:1
9,13:1
9,17:1
10,11:1
10,13:1
10,14:1
10,16:2
10,17:1
10,19:2
10,20:1
10,21:2
10,24:1
10,25:1
11,9:1
11,10:1
11,12:1
11,15:1
11,23:1
12,11:1
12,13:1
12,14:1
12,16:2
12,19:2
12,20:1
12,21:2
12,24:1
13,10:1
13,12:1
13,15:1
13,23:1
14,10:1
14,12:1
14,15:1
14,16:1
14,19:1
14,23:1
15,11:1
15,13:1
15,14:1
15,16:2
15,17:1
15,19:2
15,20:1
15,21:2
15,24:1
16,10:2
16,12:2
16,15:2
16,17:1
16,18:2
16,20:1
16,22:2
16,23:2
16,24:1
17,8:1
17,9:1
17,10:1
17,16:1
17,18:1
17,19:1
17,21:1
17,22:1
17,23:1
18,19:2
18,20:1
18,21:2
18,24:1
18,25:1
19,10:2
19,12:2
19,15:2
19,17:1
19,18:2
19,20:1
19,22:2
19,23:2
19,24:1
19,25:1
20,10:1
20,12:1
20,15:1
20,16:1
20,18:1
20,19:1
20,21:1
20,23:1
21,10:2
21,12:2
21,15:2
21,17:1
21,18:2
21,22:2
21,23:2
21,24:1
21,25:1
22,16:2
22,17:1
22,24:1
22,25:1
23,11:1
23,13:1
23,14:1
23,16:2
23,19:2
23,20:1
23,21:2
23,24:1
23,25:1
24,10:1
24,12:1
24,15:1
24,16:1
24,18:1
24,19:1
24,22:1
24,23:1
25,10:1
25,19:1
25,21:1
25,22:1

<setup times backward>
3,1:1
3,2:1
4,1:1
4,2:1
7,1:1
7,2:1
7,5:1
7,6:1
8,1:1
8,2:1
8,5:1
8,6:1
8,17:1
9,1:1
9,2:1
9,5:1
9,6:1
9,11:1
9,17:1
10,1:1
10,2:1
10,5:1
10,6:1
10,11:1
10,13:1
10,14:1
10,16:2
10,17:1
10,19:2
10,20:1
10,21:2
10,24:1
10,25:1
12,1:1
12,2:1
12,5:1
12,6:1
12,11:1
12,13:1
12,14:1
12,16:2
12,19:2
12,20:1
12,21:2
12,24:1
15,1:1
15,2:1
15,5:1
15,6:1
15,11:1
15,13:1
15,14:1
15,16:2
15,19:2
15,20:1
15,21:2
15,24:1
17,16:1
17,19:1
17,21:1
18,1:1
18,2:1
18,5:1
18,6:1
18,11:1
18,13:1
18,14:1
18,16:2
18,17:1
18,19:2
18,20:1
18,21:2
18,24:1
20,16:1
20,19:1
22,1:1
22,2:1
22,5:1
22,6:1
22,11:1
22,13:1
22,14:1
22,16:2
22,17:1
22,19:2
22,20:1
22,21:2
22,24:1
22,25:1
23,1:1
23,2:1
23,5:1
23,6:1
23,11:1
23,13:1
23,14:1
23,16:2
23,17:1
23,19:2
23,20:1
23,21:2
23,24:1
24,16:1
24,19:1
24,21:1
25,16:1
25,19:1
25,21:1

<end>

<optimal SALBP-1 value>
10


<rand seed>
467321153

<Lower Bounds>
Lm1=9
Lms1=9
Lm2=6
Lm3=7
Lm4=10
Best=10

<Optimal Stations (Iterations: 10)>
11
